Custom/8312021_18.param
$ LBS instance with n = 18, seed = 8312021
letting cards be [28,49,22,4,38,17,48,16,50,46,25,24,23,0,8,2,7,5]
